0 267
1 312
2 309
3 212
4 216
5 227
6 223
7 222
8 219
9 226
10 243
11 330
12 326
13 335
14 310
15 215
16 222
17 313
18 214
19 315
20 224
21 230
22 232
23 227
24 220
25 223
26 223
27 319
28 222
29 243
30 242
31 310
32 225
33 221
34 207
35 198
36 204
37 202
38 209
39 206
40 209
41 209
42 212
43 220
44 218
45 217
46 217
47 220
48 208
49 210
50 206
51 205
52 309
53 211
54 216
55 215
56 215
57 216
58 214
59 215
60 199
61 200
62 203
63 200
64 199
65 213
66 208
67 210
68 210
69 210
70 216
71 212
72 214
73 211
74 212
75 219
76 216
77 210
78 210
79 212
80 221
81 219
82 218
83 218
84 224
85 224
86 222
87 226
88 230
89 222
90 227
91 222
92 222
93 227
94 230
95 227
96 226
97 230
98 230
99 228
100 225
101 231
102 236
103 239
104 239
105 236
106 235
107 237
108 235
109 237
110 240
111 237
112 245
113 238
114 242
115 238
116 240
117 238
118 244
119 239
120 239
121 240
122 257
123 241
124 245
125 248
126 246
127 248
128 302
129 327
130 226
131 318
132 223
133 227
134 225
135 231
136 222
137 224
138 226
139 227
140 228
141 246
142 231
143 232
144 228
145 235
146 231
147 228
148 231
149 229
150 238
151 228
152 224
153 217
154 211
155 212
156 212
157 212
158 215
159 217
160 215
161 235
162 213
163 220
164 218
165 214
166 220
167 219
168 216
169 215
170 217
171 215
172 304
173 210
174 209
175 207
176 208
177 208
178 206
179 207
180 207
181 207
182 208
183 208
184 220
185 208
186 208
187 302
188 213
189 214
190 211
191 216
192 220
193 222
194 216
195 223
196 309
197 220
198 216
199 228
200 217
201 218
202 222
203 228
204 217
205 229
206 241
207 225
208 223
209 220
210 221
211 220
212 220
213 219
214 220
215 240
216 224
217 220
218 223
219 220
220 222
221 228
222 225
223 227
224 228
225 226
